NAME : random1
TYPE : HCP
COMMENT : 
DIMENSION : 600
EDGE_DATA_FORMAT : EDGE_LIST
EDGE_DATA_SECTION
1 7
1 9
1 13
2 6
2 8
2 14
3 9
3 11
3 15
4 10
4 16
5 8
5 11
5 17
6 12
6 18
7 19
8 20
9 21
10 11
10 22
11 23
12 24
13 18
13 19
13 25
14 18
14 26
15 16
15 22
15 27
16 19
16 21
16 28
17 29
18 21
18 30
19 31
20 32
21 33
22 34
23 35
24 36
25 37
26 33
26 38
27 28
27 39
28 40
29 32
29 34
29 41
30 42
31 43
32 44
33 45
34 46
35 47
36 48
37 38
37 44
37 49
38 50
39 40
39 41
39 51
40 43
40 45
40 52
41 53
42 45
42 46
42 47
42 54
43 44
43 46
43 55
44 46
44 56
45 57
46 58
47 59
48 60
49 55
49 58
49 61
50 51
50 54
50 59
50 62
51 52
51 59
51 63
52 53
52 64
53 56
53 57
53 65
54 66
55 67
56 68
57 58
57 69
58 70
59 71
60 72
61 73
62 68
62 74
63 69
63 75
64 67
64 76
65 67
65 71
65 77
66 69
66 71
66 78
67 68
67 79
68 80
69 81
70 82
71 83
72 84
73 85
74 76
74 86
75 79
75 87
76 80
76 82
76 88
77 78
77 89
78 90
79 91
80 92
81 93
82 94
83 95
84 96
85 87
85 93
85 97
86 98
87 99
88 100
89 101
90 102
91 94
91 103
92 104
93 105
94 106
95 107
96 108
97 109
98 101
98 110
99 111
100 106
100 112
101 113
102 114
103 115
104 116
105 117
106 118
107 119
108 120
109 118
109 121
110 117
110 122
111 123
112 124
113 116
113 125
114 126
115 117
115 127
116 117
116 128
117 129
118 130
119 131
120 132
121 128
121 133
122 129
122 134
123 125
123 135
124 136
125 137
126 127
126 138
127 131
127 139
128 140
129 141
130 142
131 143
132 144
133 139
133 145
134 146
135 147
136 148
137 139
137 149
138 142
138 150
139 151
140 152
141 153
142 154
143 155
144 156
145 152
145 157
146 148
146 152
146 158
147 150
147 159
148 154
148 160
149 161
150 152
150 162
151 163
152 164
153 154
153 165
154 166
155 167
156 168
157 159
157 169
158 160
158 170
159 171
160 162
160 167
160 172
161 167
161 173
162 164
162 165
162 167
162 174
163 175
164 176
165 177
166 178
167 179
168 180
169 181
170 179
170 182
171 183
172 184
173 185
174 175
174 186
175 178
175 187
176 188
177 189
178 190
179 191
180 192
181 190
181 193
182 184
182 189
182 191
182 194
183 195
184 185
184 196
185 186
185 197
186 198
187 189
187 199
188 200
189 201
190 202
191 203
192 204
193 196
193 205
194 202
194 206
195 207
196 201
196 208
197 209
198 210
199 211
200 212
201 213
202 214
203 215
204 216
205 213
205 217
206 207
206 211
206 218
207 212
207 215
207 219
208 220
209 221
210 222
211 223
212 224
213 225
214 226
215 227
216 228
217 229
218 221
218 222
218 230
219 231
220 221
220 223
220 232
221 222
221 225
221 226
221 233
222 234
223 235
224 236
225 237
226 238
227 239
228 240
229 234
229 241
230 242
231 243
232 239
232 244
233 245
234 246
235 238
235 247
236 248
237 239
237 249
238 250
239 251
240 252
241 243
241 248
241 253
242 254
243 247
243 249
243 255
244 246
244 256
245 248
245 257
246 250
246 258
247 259
248 260
249 261
250 262
251 263
252 264
253 259
253 265
254 257
254 266
255 261
255 263
255 267
256 268
257 269
258 270
259 271
260 272
261 273
262 274
263 275
264 276
265 277
266 278
267 273
267 279
268 272
268 275
268 280
269 274
269 281
270 275
270 282
271 275
271 283
272 284
273 285
274 275
274 286
275 287
276 288
277 289
278 284
278 286
278 287
278 290
279 284
279 291
280 283
280 287
280 292
281 282
281 285
281 293
282 294
283 295
284 296
285 297
286 298
287 299
288 300
289 299
289 301
290 293
290 302
291 303
292 304
293 295
293 305
294 296
294 306
295 307
296 308
297 309
298 310
299 311
300 312
301 307
301 309
301 313
302 304
302 314
303 308
303 311
303 315
304 306
304 316
305 310
305 317
306 318
307 310
307 319
308 320
309 321
310 322
311 323
312 324
313 323
313 325
314 326
315 318
315 321
315 327
316 322
316 323
316 328
317 329
318 320
318 322
318 330
319 331
320 332
321 333
322 334
323 335
324 336
325 337
326 330
326 335
326 338
327 329
327 330
327 334
327 339
328 330
328 340
329 341
330 331
330 342
331 334
331 343
332 344
333 345
334 346
335 347
336 348
337 349
338 339
338 345
338 350
339 341
339 351
340 342
340 352
341 353
342 354
343 347
343 355
344 356
345 357
346 358
347 359
348 360
349 354
349 361
350 355
350 362
351 352
351 363
352 359
352 364
353 365
354 357
354 366
355 367
356 358
356 359
356 368
357 358
357 369
358 370
359 371
360 372
361 368
361 373
362 364
362 370
362 374
363 375
364 376
365 377
366 378
367 379
368 369
368 371
368 380
369 381
370 382
371 383
372 384
373 378
373 385
374 386
375 376
375 387
376 388
377 389
378 390
379 382
379 383
379 391
380 381
380 392
381 393
382 394
383 395
384 396
385 397
386 393
386 395
386 398
387 395
387 399
388 394
388 400
389 401
390 402
391 392
391 403
392 404
393 395
393 405
394 406
395 407
396 408
397 401
397 404
397 409
398 410
399 400
399 401
399 403
399 411
400 405
400 412
401 402
401 406
401 413
402 407
402 414
403 415
404 416
405 406
405 417
406 418
407 419
408 420
409 421
410 414
410 422
411 423
412 424
413 418
413 419
413 425
414 416
414 417
414 419
414 426
415 427
416 418
416 428
417 418
417 429
418 430
419 431
420 432
421 433
422 434
423 435
424 436
425 437
426 438
427 439
428 440
429 441
430 442
431 443
432 444
433 440
433 443
433 445
434 436
434 446
435 440
435 447
436 441
436 448
437 438
437 439
437 449
438 442
438 450
439 441
439 451
440 452
441 453
442 454
443 455
444 456
445 457
446 448
446 458
447 459
448 451
448 452
448 460
449 461
450 455
450 462
451 463
452 454
452 464
453 454
453 465
454 466
455 467
456 468
457 469
458 467
458 470
459 466
459 471
460 465
460 472
461 473
462 474
463 475
464 466
464 476
465 477
466 467
466 478
467 479
468 480
469 481
470 482
471 477
471 483
472 484
473 478
473 485
474 486
475 487
476 479
476 488
477 489
478 490
479 491
480 492
481 493
482 485
482 491
482 494
483 495
484 487
484 496
485 497
486 489
486 498
487 488
487 499
488 500
489 501
490 502
491 503
492 504
493 494
493 505
494 502
494 506
495 499
495 507
496 508
497 509
498 510
499 511
500 502
500 512
501 513
502 514
503 515
504 516
505 511
505 517
506 518
507 519
508 513
508 520
509 512
509 515
509 521
510 511
510 522
511 512
511 523
512 524
513 525
514 526
515 527
516 528
517 525
517 526
517 529
518 522
518 530
519 531
520 532
521 533
522 525
522 526
522 534
523 535
524 536
525 537
526 527
526 538
527 539
528 540
529 531
529 541
530 539
530 542
531 543
532 533
532 544
533 537
533 545
534 535
534 546
535 547
536 548
537 549
538 550
539 551
540 552
541 553
542 554
543 548
543 555
544 545
544 556
545 546
545 557
546 558
547 559
548 560
549 561
550 562
551 563
552 564
553 559
553 565
554 557
554 566
555 557
555 560
555 567
556 560
556 568
557 569
558 570
559 561
559 571
560 561
560 572
561 563
561 573
562 574
563 575
564 576
565 569
565 577
566 578
567 579
568 580
569 575
569 581
570 571
570 582
571 583
572 584
573 585
574 586
575 587
576 588
577 580
577 589
578 582
578 583
578 584
578 590
579 591
580 581
580 582
580 592
581 593
582 594
583 586
583 595
584 586
584 596
585 597
586 598
587 599
588 600
589 590
591 592
593 594
595 596
597 598
599 600
-1
EOF
